certificates/rado_a11_c184_N23.cnf
c Rad2 upper bound instance: x1 + 11*x2 - x3 = 184, interval [1,23]
p cnf 23 96
1 4 17 0
-1 -4 -17 0
1 15 18 0
-1 -15 -18 0
2 5 17 0
-2 -5 -17 0
2 16 18 0
-2 -16 -18 0
3 6 17 0
-3 -6 -17 0
3 17 18 0
-3 -17 -18 0
4 7 17 0
-4 -7 -17 0
4 18 0
-4 -18 0
5 8 17 0
-5 -8 -17 0
5 18 19 0
-5 -18 -19 0
6 9 17 0
-6 -9 -17 0
6 18 20 0
-6 -18 -20 0
7 10 17 0
-7 -10 -17 0
7 18 21 0
-7 -18 -21 0
8 11 17 0
-8 -11 -17 0
8 18 22 0
-8 -18 -22 0
1 9 16 0
-1 -9 -16 0
9 12 17 0
-9 -12 -17 0
9 18 23 0
-9 -18 -23 0
2 10 16 0
-2 -10 -16 0
10 13 17 0
-10 -13 -17 0
3 11 16 0
-3 -11 -16 0
11 14 17 0
-11 -14 -17 0
4 12 16 0
-4 -12 -16 0
12 15 17 0
-12 -15 -17 0
5 13 16 0
-5 -13 -16 0
13 16 17 0
-13 -16 -17 0
6 14 16 0
-6 -14 -16 0
14 17 0
-14 -17 0
7 15 16 0
-7 -15 -16 0
15 17 18 0
-15 -17 -18 0
8 16 0
-8 -16 0
16 17 19 0
-16 -17 -19 0
9 16 17 0
-9 -16 -17 0
17 20 0
-17 -20 0
10 16 18 0
-10 -16 -18 0
17 18 21 0
-17 -18 -21 0
11 16 19 0
-11 -16 -19 0
17 19 22 0
-17 -19 -22 0
1 15 20 0
-1 -15 -20 0
12 16 20 0
-12 -16 -20 0
17 20 23 0
-17 -20 -23 0
2 15 21 0
-2 -15 -21 0
13 16 21 0
-13 -16 -21 0
3 15 22 0
-3 -15 -22 0
14 16 22 0
-14 -16 -22 0
4 15 23 0
-4 -15 -23 0
15 16 23 0
-15 -16 -23 0
