certificates/rado_a11_c184_N23.drat
17 -22 -23 0
18 -17 -23 0
-22 -23 0
d 17 -22 -23 0
-17 -18 22 0
-18 -23 0
-23 0
18 22 0
d 8 18 22 0
22 0
-18 0
4 0
9 0
17 0
-14 0
-20 0
-19 0
-1 0
-7 0
-6 0
-12 0
-16 0
0
